# Objective value = 5.7266199999999990e+03
I_0_0 676
I_0_1 767
I_0_2 8.9899999999999773e+02
I_0_3 7.7199999999999591e+02
I_0_4 850.999999999994
I_0_5 7.2399999999999477e+02
I_0_6 1.0379999999999993e+03
I_1_0 53
I_1_1 53
I_1_2 0
I_1_3 53
I_1_4 -9.7344354799133725e-13
I_1_5 5.3000000000000270e+01
I_1_6 -2.6645352591003757e-13
I_2_0 67
I_2_1 67
I_2_2 0
I_2_3 67
I_2_4 1.3677947663381929e-12
I_2_5 6.6999999999999446e+01
I_2_6 -7.1054273576010019e-15
I_3_0 91
I_3_1 0
I_3_2 9.0999999999998280e+01
I_3_3 91
I_3_4 9.1000000000005087e+01
I_3_5 9.1000000000003013e+01
I_3_6 0
I_4_0 55
I_4_1 55
I_4_2 0
I_4_3 55
I_4_4 0
I_4_5 55
I_4_6 0
I_5_0 96
I_5_1 96
I_5_2 4.8000000000003951e+01
I_5_3 3.9515057892458572e-12
I_5_4 9.6000000000000625e+01
I_5_5 4.8000000000000618e+01
I_5_6 -6.5902838741749292e-13
q_1_0_0 53
q_1_0_1 0
q_1_0_2 106
q_1_0_3 -9.7344354799133725e-13
q_1_0_4 1.2398970739013748e-12
q_1_0_5 0
q_1_1_0 0
q_1_1_1 0
q_1_1_2 0
q_1_1_3 0
q_1_1_4 106
q_1_1_5 -5.3290705182007514e-13
q_2_0_0 67
q_2_0_1 0
q_2_0_2 0
q_2_0_3 2.8137492336099967e-12
q_2_0_4 134
q_2_0_5 -1.77280412572145e-12
q_2_1_0 0
q_2_1_1 0
q_2_1_2 134
q_2_1_3 -1.4495071809506044e-12
q_2_1_4 0
q_2_1_5 2.3288038164537284e-12
q_3_0_0 0
q_3_0_1 1.8199999999999827e+02
q_3_0_2 0
q_3_0_3 9.0999999999990450e+01
q_3_0_4 90.9999999999979
q_3_0_5 0
q_3_1_0 0
q_3_1_1 0
q_3_1_2 9.1000000000001720e+01
q_3_1_3 1.4665602066088468e-11
q_3_1_4 0
q_3_1_5 -3.0127011996228248e-12
q_4_0_0 55
q_4_0_1 0
q_4_0_2 110
q_4_0_3 0
q_4_0_4 0
q_4_0_5 0
q_4_1_0 0
q_4_1_1 0
q_4_1_2 0
q_4_1_3 0
q_4_1_4 110
q_4_1_5 0
q_5_0_0 48
q_5_0_1 3.9515057892458572e-12
q_5_0_2 0
q_5_0_3 1.4399999999999667e+02
q_5_0_4 0
q_5_0_5 6.3593574850528967e-13
q_5_1_0 0
q_5_1_1 0
q_5_1_2 0
q_5_1_3 0
q_5_1_4 0
q_5_1_5 -1.9078072455158690e-12
y_0_0_0 1
y_0_0_1 1
y_0_0_2 1
y_0_0_3 1
y_0_0_4 1
y_0_0_5 0
y_0_1_0 0
y_0_1_1 0
y_0_1_2 1
y_0_1_3 5.6066262743570405e-14
y_0_1_4 1
y_0_1_5 -1.3239409568654992e-14
y_1_0_0 1
y_1_0_1 0
y_1_0_2 1
y_1_0_3 -9.18709552877317e-15
y_1_0_4 0
y_1_0_5 0
y_1_1_0 0
y_1_1_1 0
y_1_1_2 0
y_1_1_3 0
y_1_1_4 1.0000000000000051e+00
y_1_1_5 -5.0376369742366478e-15
y_2_0_0 1
y_2_0_1 0
y_2_0_2 0
y_2_0_3 2.0428103653102880e-14
y_2_0_4 1
y_2_0_5 -1.3239409568654992e-14
y_2_1_0 0
y_2_1_1 0
y_2_1_2 1
y_2_1_3 0
y_2_1_4 0
y_2_1_5 1.3170020629615919e-14
y_3_0_0 0
y_3_0_1 1
y_3_0_2 0
y_3_0_3 1
y_3_0_4 1
y_3_0_5 0
y_3_1_0 0
y_3_1_1 0
y_3_1_2 1
y_3_1_3 5.5844218138645374e-14
y_3_1_4 0
y_3_1_5 0
y_4_0_0 1
y_4_0_1 0
y_4_0_2 1
y_4_0_3 0
y_4_0_4 0
y_4_0_5 0
y_4_1_0 0
y_4_1_1 0
y_4_1_2 0
y_4_1_3 0
y_4_1_4 1
y_4_1_5 0
y_5_0_0 1
y_5_0_1 4.1168457531881586e-14
y_5_0_2 0
y_5_0_3 9.9999999999997691e-01
y_5_0_4 0
y_5_0_5 1.3239409568654992e-14
y_5_1_0 0
y_5_1_1 0
y_5_1_2 0
y_5_1_3 0
y_5_1_4 0
y_5_1_5 -1.3239409568654992e-14
x_0_1_0_0 0
x_0_1_0_1 0
x_0_1_0_2 1
x_0_1_0_3 0
x_0_1_0_4 0
x_0_1_0_5 0
x_0_1_1_0 0
x_0_1_1_1 0
x_0_1_1_2 0
x_0_1_1_3 0
x_0_1_1_4 1.0000000000000051e+00
x_0_1_1_5 0
x_0_2_0_0 1
x_0_2_0_1 0
x_0_2_0_2 0
x_0_2_0_3 0
x_0_2_0_4 1.0000000000000002e+00
x_0_2_0_5 -2.6478819137309983e-14
x_0_2_1_0 0
x_0_2_1_1 0
x_0_2_1_2 1
x_0_2_1_3 0
x_0_2_1_4 0
x_0_2_1_5 0
x_0_3_0_0 0
x_0_3_0_1 1.9999999999999176e+00
x_0_3_0_2 0
x_0_3_0_3 1.0000000000000226e+00
x_0_3_0_4 1.0000000000000002e+00
x_0_3_0_5 0
x_0_3_1_0 0
x_0_3_1_1 0
x_0_3_1_2 1
x_0_3_1_3 1.1213252548714081e-13
x_0_3_1_4 0
x_0_3_1_5 0
x_0_4_0_0 0
x_0_4_0_1 0
x_0_4_0_2 1
x_0_4_0_3 0
x_0_4_0_4 0
x_0_4_0_5 0
x_0_4_1_0 0
x_0_4_1_1 0
x_0_4_1_2 0
x_0_4_1_3 0
x_0_4_1_4 9.9999999999999489e-01
x_0_4_1_5 0
x_0_5_0_0 1
x_0_5_0_1 8.2336915063763172e-14
x_0_5_0_2 0
x_0_5_0_3 9.9999999999997680e-01
x_0_5_0_4 -4.4408920985006262e-16
x_0_5_0_5 2.6478819137309983e-14
x_0_5_1_0 0
x_0_5_1_1 0
x_0_5_1_2 0
x_0_5_1_3 0
x_0_5_1_4 0
x_0_5_1_5 -2.6478819137309983e-14
x_1_2_0_0 1
x_1_2_0_1 -4.1161518637977679e-14
x_1_2_0_2 0
x_1_2_0_3 -1.8374191057546341e-14
x_1_2_0_4 0
x_1_2_0_5 0
x_1_2_1_0 0
x_1_2_1_1 0
x_1_2_1_2 0
x_1_2_1_3 0
x_1_2_1_4 0
x_1_2_1_5 -1.0075273948473296e-14
x_1_3_0_0 0
x_1_3_0_1 4.1168457531881586e-14
x_1_3_0_2 0
x_1_3_0_3 0
x_1_3_0_4 0
x_1_3_0_5 0
x_1_3_1_0 0
x_1_3_1_1 0
x_1_3_1_2 0
x_1_3_1_3 0
x_1_3_1_4 0
x_1_3_1_5 0
x_1_4_0_0 1
x_1_4_0_1 0
x_1_4_0_2 1
x_1_4_0_3 0
x_1_4_0_4 0
x_1_4_0_5 0
x_1_4_1_0 0
x_1_4_1_1 0
x_1_4_1_2 0
x_1_4_1_3 0
x_1_4_1_4 1.0000000000000051e+00
x_1_4_1_5 0
x_1_5_0_0 0
x_1_5_0_1 0
x_1_5_0_2 0
x_1_5_0_3 0
x_1_5_0_4 0
x_1_5_0_5 0
x_1_5_1_0 0
x_1_5_1_1 0
x_1_5_1_2 0
x_1_5_1_3 0
x_1_5_1_4 0
x_1_5_1_5 0
x_2_3_0_0 0
x_2_3_0_1 4.1161518637977679e-14
x_2_3_0_2 0
x_2_3_0_3 -9.1593399531575415e-15
x_2_3_0_4 9.9999999999999978e-01
x_2_3_0_5 0
x_2_3_1_0 0
x_2_3_1_1 0
x_2_3_1_2 1
x_2_3_1_3 0
x_2_3_1_4 0
x_2_3_1_5 0
x_2_4_0_0 0
x_2_4_0_1 0
x_2_4_0_2 0
x_2_4_0_3 0
x_2_4_0_4 0
x_2_4_0_5 0
x_2_4_1_0 0
x_2_4_1_1 0
x_2_4_1_2 0
x_2_4_1_3 0
x_2_4_1_4 0
x_2_4_1_5 0
x_2_5_0_0 0
x_2_5_0_1 0
x_2_5_0_2 0
x_2_5_0_3 -9.2148511043888e-15
x_2_5_0_4 0
x_2_5_0_5 0
x_2_5_1_0 0
x_2_5_1_1 0
x_2_5_1_2 0
x_2_5_1_3 0
x_2_5_1_4 0
x_2_5_1_5 0
x_3_4_0_0 0
x_3_4_0_1 0
x_3_4_0_2 0
x_3_4_0_3 0
x_3_4_0_4 0
x_3_4_0_5 0
x_3_4_1_0 0
x_3_4_1_1 0
x_3_4_1_2 0
x_3_4_1_3 0
x_3_4_1_4 0
x_3_4_1_5 0
x_3_5_0_0 0
x_3_5_0_1 0
x_3_5_0_2 0
x_3_5_0_3 9.9999999999998612e-01
x_3_5_0_4 0
x_3_5_0_5 0
x_3_5_1_0 0
x_3_5_1_1 0
x_3_5_1_2 0
x_3_5_1_3 0
x_3_5_1_4 0
x_3_5_1_5 0
x_4_5_0_0 1
x_4_5_0_1 0
x_4_5_0_2 0
x_4_5_0_3 0
x_4_5_0_4 0
x_4_5_0_5 0
x_4_5_1_0 0
x_4_5_1_1 0
x_4_5_1_2 0
x_4_5_1_3 0
x_4_5_1_4 0
x_4_5_1_5 0
